% ----DATA VARIABLES----

t=10;%number of attributes
k=4;%max length of the support set
n=20;%number of positive instances
m=20;%number of negative instances
c=2;%number of atMostOne Constraints

% ----OMEGAS----

omegap= [| 1, 1, 0, 0, 0, 0, 0, 0, 0, 0|
 1, 0, 0, 0, 0, 0, 0, 0, 1, 1|
 1, 1, 1, 1, 0, 1, 0, 0, 0, 1|
 1, 1, 0, 0, 1, 0, 0, 0, 0, 0|
 0, 0, 1, 0, 1, 1, 0, 1, 0, 1|
 0, 1, 1, 1, 0, 1, 0, 0, 1, 0|
 1, 1, 1, 0, 0, 0, 1, 1, 0, 1|
 0, 1, 0, 1, 0, 1, 1, 0, 0, 1|
 1, 1, 1, 0, 1, 0, 0, 1, 0, 1|
 0, 0, 1, 1, 1, 1, 0, 0, 1, 0|
 1, 1, 0, 0, 1, 0, 0, 1, 1, 1|
 0, 0, 0, 0, 0, 1, 1, 1, 1, 0|
 0, 0, 1, 1, 0, 1, 1, 1, 1, 1|
 0, 0, 0, 0, 0, 1, 0, 1, 1, 1|
 1, 0, 0, 1, 0, 1, 0, 0, 0, 1|
 1, 0, 1, 0, 1, 0, 0, 1, 1, 0|
 0, 0, 0, 0, 1, 0, 0, 0, 1, 0|
 0, 1, 1, 1, 1, 0, 0, 0, 1, 1|
 0, 1, 1, 1, 0, 1, 1, 1, 1, 1|
 0, 1, 0, 0, 1, 0, 1, 1, 0, 1|];

omegan= [| 1, 0, 1, 1, 1, 0, 0, 1, 1, 1|
 1, 1, 0, 1, 0, 0, 1, 1, 0, 0|
 1, 0, 0, 1, 0, 1, 1, 1, 0, 1|
 0, 1, 0, 0, 1, 0, 0, 1, 1, 1|
 0, 0, 1, 1, 1, 1, 1, 0, 1, 0|
 0, 1, 1, 0, 0, 1, 1, 1, 1, 0|
 0, 0, 1, 1, 1, 1, 0, 1, 1, 1|
 0, 1, 0, 1, 1, 0, 0, 1, 0, 1|
 0, 0, 0, 0, 1, 0, 1, 0, 1, 1|
 1, 0, 1, 0, 0, 0, 0, 0, 1, 1|
 0, 0, 0, 1, 0, 1, 1, 1, 1, 0|
 0, 0, 0, 0, 0, 0, 0, 1, 0, 1|
 1, 1, 1, 1, 0, 1, 1, 1, 0, 1|
 1, 1, 1, 0, 1, 1, 1, 0, 0, 1|
 1, 1, 1, 1, 1, 1, 1, 0, 1, 1|
 1, 1, 1, 0, 0, 0, 0, 1, 1, 1|
 0, 0, 0, 0, 1, 1, 0, 1, 0, 0|
 1, 1, 0, 1, 0, 1, 0, 0, 1, 0|
 0, 0, 1, 1, 1, 1, 1, 1, 0, 0|
 1, 0, 1, 1, 0, 0, 1, 0, 1, 0|];

% ----CONSTRAINS----

atMostOne=[{6, 8, 6}, {9, 9}];